
  1 45.00 68.00 90.00 10.00 1 1 1 912 967
  2 45.00 70.00 90.00 30.00 1 1 1 825 870
  3 42.00 66.00 90.00 10.00 1 1 1 65 146
  4 42.00 68.00 90.00 10.00 1 1 1 727 782
  5 42.00 65.00 90.00 10.00 1 1 1 15 67
  6 40.00 69.00 90.00 20.00 1 1 1 621 702
  7 40.00 66.00 90.00 20.00 1 1 1 170 225
  8 38.00 68.00 90.00 20.00 1 1 1 255 324
  9 38.00 70.00 90.00 10.00 1 1 1 534 605
 10 35.00 66.00 90.00 10.00 1 1 1 357 410
